c Sudoku solution
p cnf 729 0
166 0
185 0
197 0
245 0
311 0
358 0
373 0
418 0
453 0
462 0
536 0
551 0
575 0
589 0
696 0
446 0
741 0
261 0
143 0
171 0
852 0
342 0
879 0
887 0
915 0
931 0
891 0
795 0
865 0
655 0
494 0
477 0
481 0
621 0
399 0
947 0
649 0
257 0
364 0
159 0
386 0
544 0
848 0
978 0
776 0
754 0
956 0
984 0
274 0
672 0
738 0
128 0
824 0
833 0
816 0
226 0
523 0
512 0
598 0
683 0
567 0
668 0
114 0
132 0
213 0
239 0
617 0
634 0
719 0
727 0
922 0
782 0
993 0
763 0
969 0
325 0
337 0
429 0
435 0
288 0
292 0
